50
11242

611 763
318 463
562 59
316 437
724 135
889 985
108 305
443 296
740 882
590 347
593 550
415 479
481 942
521 718
771 793
988 177
569 60
106 926
878 464
287 872
604 400
156 784
91 379
316 662
847 187
139 962
208 75
993 813
980 649
217 850
45 973
591 96
96 151
325 526
991 980
227 221
404 607
528 342
340 486
996 962
368 501
195 627
977 508
153 278
521 59
554 827
966 892
378 448
550 671
68 781
